
Log started (V12.10.0.0) Mon Apr  5 23:39:17 2021


Problem 'asset.lp' read.
Read time = 0.01 sec. (0.72 ticks)
New value for default parallel thread count: 1
New value for time limit in seconds: 150
Version identifier: 12.10.0.0 | 2019-11-26 | 843d4de
CPXPARAM_Threads                                 1
CPXPARAM_TimeLimit                               150
Found incumbent of value 0.000000 after 0.00 sec. (0.19 ticks)
Tried aggregator 3 times.
MIP Presolve eliminated 1990 rows and 724 columns.
MIP Presolve modified 6108 coefficients.
Aggregator did 2167 substitutions.
Reduced MIP has 2411 rows, 2884 columns, and 13509 nonzeros.
Reduced MIP has 2591 binaries, 225 generals, 0 SOSs, and 0 indicators.
Presolve time = 0.03 sec. (27.92 ticks)
Probing fixed 90 vars, tightened 1 bounds.
Probing time = 0.03 sec. (17.52 ticks)
Cover probing fixed 0 vars, tightened 34 bounds.
Tried aggregator 1 time.
Detecting symmetries...
MIP Presolve eliminated 105 rows and 97 columns.
MIP Presolve modified 596 coefficients.
Reduced MIP has 2306 rows, 2787 columns, and 12730 nonzeros.
Reduced MIP has 2495 binaries, 224 generals, 0 SOSs, and 0 indicators.
Presolve time = 0.01 sec. (11.56 ticks)
Probing time = 0.00 sec. (3.03 ticks)
Clique table members: 7446.
MIP emphasis: balance optimality and feasibility.
MIP search method: dynamic search.
Parallel mode: none, using 1 thread.
Root relaxation solution time = 0.08 sec. (114.37 ticks)

        Nodes                                         Cuts/
   Node  Left     Objective  IInf  Best Integer    Best Bound    ItCnt     Gap

*     0+    0                            0.0000      356.0000              --- 
      0     0      351.6848   401        0.0000      351.6848     1180     --- 
      0     0      349.8468   401        0.0000     Cuts: 676     2944     --- 
      0     0      349.3333   401        0.0000     Cuts: 676     4467     --- 
      0     0      348.6660   401        0.0000     Cuts: 676     6387     --- 
      0     0      347.4000   401        0.0000     Cuts: 676     8269     --- 
      0     0      346.7706   401        0.0000     Cuts: 676    10462     --- 
Detecting symmetries...
      0     0      346.2222   401        0.0000     Cuts: 676    12239     --- 
      0     0      344.9896   401        0.0000     Cuts: 676    15318     --- 
      0     0      344.3269   401        0.0000     Cuts: 676    21520     --- 
      0     0      342.5805   401        0.0000     Cuts: 676    27077     --- 
      0     0      342.2600   401        0.0000     Cuts: 676    30481     --- 
      0     0      341.6720   401        0.0000     Cuts: 676    32409     --- 
      0     0      341.3668   401        0.0000     Cuts: 676    34473     --- 
      0     0      340.9696   401        0.0000     Cuts: 676    36136     --- 
      0     0      340.8837   401        0.0000     Cuts: 676    38207     --- 
      0     0      340.5024   401        0.0000     Cuts: 676    40461     --- 
      0     0      340.1509   401        0.0000     Cuts: 676    41442     --- 
      0     0      340.0861   401        0.0000     Cuts: 676    43776     --- 
      0     0      339.7737   401        0.0000     Cuts: 676    45665     --- 
      0     0      339.1907   401        0.0000     Cuts: 627    49847     --- 
      0     0      338.5505   401        0.0000     Cuts: 676    52877     --- 
      0     0      337.8557   401        0.0000     Cuts: 676    57715     --- 
      0     0      337.5628   401        0.0000     Cuts: 676    59494     --- 
      0     0      337.5043   401        0.0000     Cuts: 676    62972     --- 
      0     0      337.4334   401        0.0000     Cuts: 219    65106     --- 
      0     0      337.2853   401        0.0000     Cuts: 676    66745     --- 
      0     0      337.1386   401        0.0000     Cuts: 676    69031     --- 
      0     0      337.0429   401        0.0000     Cuts: 676    70657     --- 
      0     0      336.9209   401        0.0000     Cuts: 676    72923     --- 
      0     0      336.8418   401        0.0000     Cuts: 676    73990     --- 
*     0+    0                          102.0000      336.8418           230.24%
*     0+    0                          112.0000      336.8418           200.75%
*     0+    0                          120.0000      336.8418           180.70%
      0     0        cutoff            120.0000      336.8418    73990  180.70%
Detecting symmetries...
      0     2      336.8418   458      120.0000      336.8418    73990  180.70%
Elapsed time = 12.25 sec. (17193.48 ticks, tree = 0.01 MB, solutions = 3)
      2     4      336.4659   409      120.0000      336.8407    75864  180.70%
      3     5      332.0617   420      120.0000      336.8405    79238  180.70%
      4     6      329.3325   430      120.0000      336.8405    83234  180.70%
      6     8      334.0000   454      120.0000      336.8405    86312  180.70%
      8    10      332.6334   379      120.0000      336.8405    89906  180.70%
     10    12      330.1896   387      120.0000      336.8405    92484  180.70%
     18    20      316.9184   340      120.0000      336.8405    96447  180.70%
     23    25      291.8380   297      120.0000      336.8405    99933  180.70%
     30    32      315.0581   299      120.0000      336.8405   100479  180.70%
     53    53      308.0000   296      120.0000      336.8405   108212  180.70%
Elapsed time = 15.92 sec. (22374.94 ticks, tree = 0.23 MB, solutions = 3)
     66    66      274.0000   252      120.0000      336.8405   118538  180.70%
     92    90      267.7169   236      120.0000      336.8405   127393  180.70%
    122   112      253.8256   193      120.0000      336.8405   139711  180.70%
*   211+  170                          122.0000      336.8405           176.10%
    211   172      335.9184   416      122.0000      335.8742   153875  175.31%
    217   178      331.6209   416      122.0000      334.0000   163420  173.77%
    219   180      323.8297   395      122.0000      334.0000   176391  173.77%
    224   185      323.6484   349      122.0000      334.0000   183267  173.77%
    240   201      318.3171   331      122.0000      334.0000   193657  173.77%
    261   222      306.9281   308      122.0000      334.0000   203887  173.77%
    299   242      274.3678   227      122.0000      334.0000   214659  173.77%
Elapsed time = 24.57 sec. (34148.50 ticks, tree = 0.79 MB, solutions = 4)
    341   282      225.5359   103      122.0000      334.0000   225645  173.77%
*   414   339      integral     0      184.0000      334.0000   230249   81.52%
    415   339      327.2970   448      184.0000      334.0000   236060   81.52%
    418   342      332.9849   440      184.0000      333.5505   242974   81.28%
    423   347      330.6313   371      184.0000      333.5505   247707   81.28%
    457   381      317.8362   371      184.0000      333.5505   258440   81.28%
    476   400      312.7622   341      184.0000      333.5505   266361   81.28%
    510   434      292.5580   281      184.0000      333.5505   277919   81.28%

Performing restart 1

Repeating presolve.
Tried aggregator 1 time.
MIP Presolve eliminated 5 rows and 0 columns.
MIP Presolve modified 2553 coefficients.
Reduced MIP has 2301 rows, 2787 columns, and 10770 nonzeros.
Reduced MIP has 2495 binaries, 224 generals, 0 SOSs, and 0 indicators.
Presolve time = 0.01 sec. (9.49 ticks)
Tried aggregator 1 time.
Reduced MIP has 2301 rows, 2787 columns, and 10770 nonzeros.
Reduced MIP has 2495 binaries, 224 generals, 0 SOSs, and 0 indicators.
Presolve time = 0.01 sec. (7.53 ticks)
Represolve time = 0.10 sec. (61.15 ticks)
    524     0      324.6767   511      184.0000     Cuts: 675   299039   76.45%
    524     0      319.8983   511      184.0000     Cuts: 471   301047   73.86%
    524     0      318.1893   511      184.0000     Cuts: 380   302423   72.93%
    524     0      315.7850   511      184.0000     Cuts: 313   303956   71.62%
    524     0      313.9979   511      184.0000     Cuts: 435   306064   70.65%
    524     0      312.9396   511      184.0000     Cuts: 344   307542   70.08%
    524     0      312.0205   511      184.0000     Cuts: 289   308823   69.58%
    524     0      311.6718   511      184.0000     Cuts: 268   309479   69.39%
    524     0      311.4153   511      184.0000     Cuts: 210   310341   69.25%
    524     0      311.0113   511      184.0000     Cuts: 208   311337   69.03%
    524     0      310.6246   511      184.0000     Cuts: 148   311951   68.82%
    524     0      310.2847   511      184.0000     Cuts: 160   312717   68.63%
    524     0      310.1045   511      184.0000     Cuts: 153   313526   68.54%
    524     0      309.8816   511      184.0000     Cuts: 148   314100   68.41%
    524     0      309.7700   511      184.0000     Cuts: 102   314605   68.35%
    524     0      309.6228   511      184.0000      Cuts: 90   315115   68.27%
    524     0      309.3364   511      184.0000      Cuts: 87   316071   68.12%
    524     0      309.1171   511      184.0000     Cuts: 109   316870   68.00%
    524     0      308.9622   511      184.0000     Cuts: 118   317379   67.91%
    524     0      308.7582   511      184.0000      Cuts: 96   318358   67.80%
    524     0      308.5588   511      184.0000     Cuts: 172   319133   67.69%
    524     0      308.4325   511      184.0000     Cuts: 133   319941   67.63%
    524     0      308.3874   511      184.0000     Cuts: 133   320508   67.60%
    524     0      308.2512   511      184.0000     Cuts: 144   321378   67.53%
    524     0      308.1369   511      184.0000     Cuts: 133   321999   67.47%
    524     0      308.0534   511      184.0000     Cuts: 121   322639   67.42%
    524     0      308.0069   511      184.0000     Cuts: 127   323016   67.40%
    524     0      307.8905   511      184.0000      Cuts: 97   323682   67.33%
    524     0      307.7751   511      184.0000     Cuts: 125   324355   67.27%
    524     0      307.6770   511      184.0000     Cuts: 145   325104   67.22%
    524     0      307.4614   511      184.0000     Cuts: 130   325981   67.10%
    524     0      307.3401   511      184.0000      Cuts: 89   326916   67.03%
    524     0      307.2380   511      184.0000     Cuts: 136   327797   66.98%
    524     0      307.1772   511      184.0000     Cuts: 140   328436   66.94%
    524     0      307.1407   511      184.0000     Cuts: 113   329031   66.92%
    524     0      307.1179   511      184.0000      Cuts: 98   329476   66.91%
    524     2      307.1179   577      184.0000      307.1159   329476   66.91%
    526     4      306.5576   535      184.0000      306.5682   330610   66.61%
    528     6      306.3386   524      184.0000      306.5682   331502   66.61%
Elapsed time = 65.31 sec. (87470.04 ticks, tree = 0.01 MB, solutions = 5)
    530     8      300.3444   451      184.0000      306.5682   335150   66.61%
    532    10      306.3520   524      184.0000      306.5682   337866   66.61%
    534    12      306.3245   517      184.0000      306.5682   340124   66.61%
    536    14      304.9417   509      184.0000      306.5682   343024   66.61%
    539    17      300.5383   482      184.0000      306.5682   346294   66.61%
    543    21      303.7496   491      184.0000      306.5682   348233   66.61%
    545    23      291.3619   386      184.0000      306.5682   349950   66.61%
    550    28      294.9023   404      184.0000      306.5682   355165   66.61%
    555    33      303.5437   489      184.0000      306.5682   357477   66.61%
    560    38      303.5251   493      184.0000      306.5682   359252   66.61%
Elapsed time = 75.17 sec. (102163.62 ticks, tree = 0.30 MB, solutions = 5)
    563    41      299.6165   457      184.0000      306.5682   361917   66.61%
    564    42      303.2832   483      184.0000      306.5682   362770   66.61%
    568    46      302.1366   469      184.0000      306.5682   367257   66.61%
    572    50      297.2977   420      184.0000      306.5682   371534   66.61%
    574    52      298.1423   401      184.0000      306.5682   372584   66.61%
    580    58      299.8527   417      184.0000      306.5682   375059   66.61%
    587    65      297.9955   457      184.0000      306.5682   377443   66.61%
    593    71      299.9675   438      184.0000      306.5682   379989   66.61%
    594    72      298.1579   439      184.0000      306.5682   381245   66.61%
    599    77      296.8860   410      184.0000      306.5682   384124   66.61%
Elapsed time = 84.61 sec. (116156.21 ticks, tree = 1.09 MB, solutions = 5)
    605    83      294.6228   399      184.0000      306.5682   387582   66.61%
    613    91      297.5305   408      184.0000      306.5682   389830   66.61%
    620    98      293.9975   428      184.0000      306.5682   393052   66.61%
    625   103      292.9006   404      184.0000      306.5682   395998   66.61%
    639   117      289.6216   390      184.0000      306.5682   399094   66.61%
    657   135      287.7559   372      184.0000      306.5682   401865   66.61%
    678   156      285.6876   358      184.0000      306.5682   405940   66.61%
    690   168      280.2283   326      184.0000      306.5682   408642   66.61%
    702   180      254.4630   276      184.0000      306.5682   413076   66.61%
    720   198      267.5856   286      184.0000      306.5682   416004   66.61%
Elapsed time = 91.70 sec. (126288.44 ticks, tree = 3.76 MB, solutions = 5)
    755   231      262.7718   259      184.0000      306.5682   419363   66.61%
    763   235      302.8642   518      184.0000      306.5479   423666   66.60%
    766   238      297.6475   453      184.0000      306.5479   425928   66.60%
    775   247      300.6552   500      184.0000      306.5479   428626   66.60%
    780   252      297.0903   504      184.0000      306.5479   432370   66.60%
    784   256      292.1454   444      184.0000      306.5479   436536   66.60%
    792   264      294.4236   457      184.0000      306.5479   440148   66.60%
    800   272      293.2369   439      184.0000      306.5479   443713   66.60%
    808   280      291.8142   413      184.0000      306.5479   448190   66.60%
    820   292      289.6106   421      184.0000      306.5479   452124   66.60%
Elapsed time = 100.73 sec. (139034.52 ticks, tree = 5.98 MB, solutions = 5)
    833   305      282.9233   356      184.0000      306.5479   456430   66.60%
    845   317      279.2412   376      184.0000      306.5479   461092   66.60%
    867   337      268.2564   305      184.0000      306.5479   465538   66.60%
    877   345      282.7832   358      184.0000      306.5479   470231   66.60%
    890   356      279.3925   327      184.0000      306.5479   473856   66.60%
    899   363      277.6125   347      184.0000      306.5479   478066   66.60%
    918   378      275.1317   308      184.0000      306.5479   482379   66.60%
    933   389      267.9231   281      184.0000      306.5479   486544   66.60%
    948   396      304.5500   521      184.0000      306.3569   492009   66.50%
    949   397      302.7935   518      184.0000      306.3344   493978   66.49%
Elapsed time = 108.59 sec. (150284.11 ticks, tree = 8.55 MB, solutions = 5)
    962   410      300.8800   501      184.0000      306.3344   496823   66.49%
    964   412      300.7071   512      184.0000      306.3344   497568   66.49%
    979   427      299.6753   490      184.0000      306.3344   500548   66.49%
    986   434      297.4759   436      184.0000      306.3344   503884   66.49%
    999   447      293.3192   388      184.0000      306.3344   507841   66.49%
   1050   498      287.4937   350      184.0000      306.3344   512052   66.49%
   1059   503      305.7838   512      184.0000      306.3163   516508   66.48%
   1062   506      304.8173   517      184.0000      306.3163   518252   66.48%
   1073   517      303.6702   506      184.0000      306.3163   520859   66.48%
   1084   528      302.2456   473      184.0000      306.3163   524104   66.48%
Elapsed time = 118.21 sec. (164063.91 ticks, tree = 9.34 MB, solutions = 5)
   1094   538      299.2030   421      184.0000      306.3163   528675   66.48%
   1100   544      296.9141   436      184.0000      306.3163   531799   66.48%
   1120   564      292.8861   392      184.0000      306.3163   535815   66.48%
   1135   577        cutoff            184.0000      306.3163   541918   66.48%
   1138   577      303.5778   505      184.0000      306.3137   546957   66.47%
   1143   582      302.2469   499      184.0000      306.3137   550227   66.47%
   1149   588      298.8529   453      184.0000      306.3137   554983   66.47%
   1154   593      302.4564   493      184.0000      306.3137   558705   66.47%
   1159   598      298.5674   457      184.0000      306.3137   562967   66.47%
   1174   613      300.4688   453      184.0000      306.3137   573162   66.47%
Elapsed time = 128.98 sec. (179440.94 ticks, tree = 11.05 MB, solutions = 5)
   1204   643      293.9880   388      184.0000      306.3137   586281   66.47%
   1264   702      275.7320   338      184.0000      306.3137   603254   66.47%
   1293   722      304.0015   532      184.0000      306.3065   617677   66.47%
Starting limited solution polishing.
   1324   753      297.6404   444      184.0000      306.3065   625623   66.47%
   1382   807      297.7488   467      184.0000      305.7829   641704   66.19%
   1406   829      292.3941   444      184.0000      305.7829   649328   66.19%
*  1424+  845                          186.0000      305.7829            64.40%
Advanced basis not built.

GUB cover cuts applied:  112
Clique cuts applied:  184
Cover cuts applied:  20
Implied bound cuts applied:  110
Flow cuts applied:  16
Mixed integer rounding cuts applied:  121
Zero-half cuts applied:  123
Lift and project cuts applied:  26
Gomory fractional cuts applied:  4

Root node processing (before b&c):
  Real time             =   12.24 sec. (17181.36 ticks)
Sequential b&c:
  Real time             =  137.77 sec. (191266.55 ticks)
                          ------------
Total (root+branch&cut) =  150.00 sec. (208447.91 ticks)

Solution pool: 7 solutions saved.

MIP - Time limit exceeded, integer feasible:  Objective =  1.8600000000e+02
Current MIP best bound =  3.0578293900e+02 (gap = 119.783, 64.40%)
Solution time =  150.00 sec.  Iterations = 655090  Nodes = 1424 (846)
Deterministic time = 208447.92 ticks  (1389.62 ticks/sec)


Incumbent solution
Variable Name           Solution Value
F                           186.000000
y1                            1.000000
y3                            1.000000
y7                            1.000000
y9                            1.000000
y15                           1.000000
y25                           1.000000
y30                           1.000000
y40                           1.000000
y86                           1.000000
y90                           1.000000
y93                           1.000000
y99                           1.000000
y100                          1.000000
y103                          1.000000
y108                          1.000000
y122                          1.000000
y130                          1.000000
y163                          1.000000
y164                          1.000000
y167                          1.000000
y168                          1.000000
y173                          1.000000
y177                          1.000000
y191                          1.000000
y193                          1.000000
y194                          1.000000
y203                          1.000000
y204                          1.000000
y235                          1.000000
y241                          1.000000
y260                          1.000000
y261                          1.000000
x1x191x1                      1.000000
x60x1x1                       1.000000
x150x260x1                    1.000000
x153x108x1                    1.000000
x180x99x1                     2.000000
x221x193x1                    1.000000
x233x130x1                    1.000000
x260x9x1                      1.000000
x2x168x2                      1.000000
x106x30x2                     1.000000
x106x177x2                    1.000000
x153x177x2                    1.000000
x171x203x2                    2.000000
x182x194x2                    1.000000
x203x7x2                      1.000000
x203x164x2                    1.000000
x233x168x2                    1.000000
x1x100x3                      1.000000
x2x130x3                      1.000000
x28x173x3                     2.000000
x141x30x3                     1.000000
x141x108x3                    1.000000
x182x194x3                    1.000000
x187x1x3                      1.000000
x187x260x3                    1.000000
x221x193x3                    1.000000
x260x86x3                     1.000000
x108x3x1                      1.000000
x167x3x1                      1.000000
x3x0x1                        2.000000
x7x0x2                        2.000000
x9x15x1                       1.000000
x9x93x1                       1.000000
x15x0x1                       1.000000
x168x15x2                     1.000000
x15x0x2                       1.000000
x30x25x2                      1.000000
x25x0x2                       1.000000
x108x25x3                     1.000000
x25x0x3                       1.000000
x30x103x3                     1.000000
x173x40x3                     2.000000
x40x0x3                       2.000000
x86x163x3                     1.000000
x86x235x3                     1.000000
x99x90x1                      1.000000
x90x0x1                       1.000000
x194x90x2                     1.000000
x90x0x2                       1.000000
x93x0x1                       1.000000
x177x93x2                     1.000000
x93x0x2                       1.000000
x99x167x1                     1.000000
x100x103x3                    1.000000
x100x241x3                    1.000000
x103x0x3                      2.000000
x191x122x1                    2.000000
x122x0x1                      2.000000
x130x261x1                    1.000000
x130x0x3                      1.000000
x177x163x2                    1.000000
x163x0x2                      1.000000
x163x0x3                      1.000000
x164x204x2                    1.000000
x164x261x2                    1.000000
x194x167x3                    1.000000
x167x0x3                      1.000000
x168x241x2                    1.000000
x193x235x1                    1.000000
x193x204x3                    1.000000
x204x0x2                      1.000000
x204x0x3                      1.000000
x235x0x1                      1.000000
x235x0x3                      1.000000
x241x0x2                      1.000000
x241x0x3                      1.000000
x261x0x1                      1.000000
x261x0x2                      1.000000
s1                            6.028445
s3                            9.300000
z1z3z1                        1.000000
s9                            7.627633
s12                           6.979920
s15                           9.160000
s20                           6.320000
s22                           8.990000
s25                           8.687724
s26                           7.840000
s30                           7.230000
s33                           8.990000
s34                           7.570000
s37                           6.240000
s40                           8.670000
s48                           7.290000
s74                           7.100000
s79                           7.549806
s82                           7.649412
s86                           7.387373
s87                           6.550000
s88                           9.380000
s90                           8.452148
s92                           7.340000
s93                           8.880000
s95                           6.220000
s99                           6.255792
s100                          7.198491
z1z100z3                      1.000000
s103                          8.860000
s108                          7.250000
s112                          7.770000
s118                          7.959935
s120                          8.640000
s122                          9.250000
s130                          8.343333
s134                          8.230000
s146                          7.850000
s158                          6.240000
s159                          6.390000
s163                          8.662412
s167                          8.103927
s169                          9.200000
s173                          7.556470
s178                          9.300000
z1z178z3                      1.000000
s184                          6.200000
s185                          9.420000
z1z185z3                      1.000000
s191                          7.714007
z1z191z1                      1.000000
s193                          7.472757
s194                          6.942682
s204                          9.300000
s210                          6.820000
s214                          8.730000
s216                          8.010000
s219                          7.930000
s224                          6.400000
s234                          7.700000
s235                          8.820000
s237                          8.620000
s241                          8.770000
s255                          7.090000
s256                          8.320000
s261                          9.450000
s2                            5.955335
s7                            9.140000
z2z7z2                        1.000000
z2z22z3                       1.000000
z2z40z3                       1.000000
s59                           6.530000
z2z103z3                      1.000000
s123                          8.190000
z2z130z3                      1.000000
s149                          6.850000
s164                          8.011429
s168                          7.620000
z2z168z2                      1.000000
z2z169z3                      1.000000
s177                          7.470000
z2z178z3                      1.000000
z2z185z3                      1.000000
s195                          7.350000
s196                          9.160000
z2z196z2                      1.000000
z2z237z3                      1.000000
s28                           5.941133
z28z22z3                      1.000000
z28z40z3                      1.000000
z28z103z3                     1.000000
z28z169z3                     1.000000
z28z173z3                     1.000000
z28z178z3                     1.000000
z28z185z3                     1.000000
z28z237z3                     1.000000
s45                           6.000000
z45z7z2                       1.000000
z45z178z3                     1.000000
z45z185z3                     1.000000
s54                           6.231736
z54z3z1                       1.000000
z54z122z1                     1.000000
s60                           4.721907
z60z1z1                       1.000000
z60z3z1                       1.000000
z60z9z1                       1.000000
z60z79z1                      1.000000
z60z95z1                      1.000000
z60z99z1                      1.000000
z60z118z1                     1.000000
z60z122z1                     1.000000
z60z191z1                     1.000000
s217                          6.734084
s229                          6.681643
s260                          6.004543
s106                          5.869577
z106z7z2                      1.000000
z106z30z2                     1.000000
z106z168z2                    1.000000
z106z177z2                    1.000000
z106z196z2                    1.000000
s141                          5.904962
z141z22z3                     1.000000
z141z30z3                     1.000000
z141z40z3                     1.000000
z141z103z3                    1.000000
z141z108z3                    1.000000
z141z169z3                    1.000000
z141z173z3                    1.000000
z141z178z3                    1.000000
z141z185z3                    1.000000
z141z237z3                    1.000000
s150                          4.710000
z150z3z1                      1.000000
z150z9z1                      1.000000
z150z79z1                     1.000000
z150z95z1                     1.000000
z150z99z1                     1.000000
z150z118z1                    1.000000
z150z122z1                    1.000000
z150z191z1                    1.000000
z150z260z1                    1.000000
s153                          5.711661
z153z3z1                      1.000000
z153z7z2                      1.000000
z153z9z1                      1.000000
z153z108z1                    1.000000
z153z122z1                    1.000000
z153z164z2                    1.000000
z153z168z2                    1.000000
z153z177z2                    1.000000
z153z195z2                    1.000000
z153z196z2                    1.000000
s171                          4.853332
z171z7z2                      1.000000
z171z123z2                    1.000000
z171z149z2                    1.000000
z171z164z2                    1.000000
z171z168z2                    1.000000
z171z177z2                    1.000000
s190                          6.000000
z171z195z2                    1.000000
z171z196z2                    1.000000
s203                          6.478096
z171z203z2                    1.000000
s180                          4.808867
z180z3z1                      1.000000
z180z9z1                      1.000000
z180z54z1                     1.000000
z180z79z1                     1.000000
z180z95z1                     1.000000
z180z99z1                     1.000000
z180z118z1                    1.000000
z180z122z1                    1.000000
z180z191z1                    1.000000
s182                          5.450111
z182z7z2                      1.000000
z182z22z3                     1.000000
z182z40z3                     1.000000
z182z86z3                     1.000000
z182z103z3                    1.000000
z182z123z2                    1.000000
z182z164z2                    1.000000
z182z168z2                    1.000000
z182z169z3                    1.000000
z182z173z3                    1.000000
z182z177z2                    1.000000
z182z178z3                    1.000000
z182z185z3                    1.000000
z182z194z2                    1.000000
z182z194z3                    1.000000
z182z195z2                    1.000000
z182z196z2                    1.000000
z182z237z3                    1.000000
s187                          4.117351
z187z1z3                      1.000000
z187z22z3                     1.000000
z187z40z3                     1.000000
z187z82z3                     1.000000
z187z86z3                     1.000000
z187z100z3                    1.000000
z187z103z3                    1.000000
z187z159z3                    1.000000
z187z169z3                    1.000000
z187z173z3                    1.000000
z187z178z3                    1.000000
z187z184z3                    1.000000
z187z185z3                    1.000000
z187z237z3                    1.000000
z187z260z3                    1.000000
z203z7z2                      1.000000
z203z164z2                    1.000000
z217z3z1                      1.000000
z217z7z2                      1.000000
s221                          5.822697
z221z3z1                      1.000000
z221z22z3                     1.000000
z221z40z3                     1.000000
z221z103z3                    1.000000
z221z122z1                    1.000000
z221z169z3                    1.000000
z221z178z3                    1.000000
z221z185z3                    1.000000
z221z193z1                    1.000000
z221z193z3                    1.000000
z221z237z3                    1.000000
s233                          5.645091
z233z3z1                      1.000000
z233z7z2                      1.000000
z233z9z1                      1.000000
z233z118z1                    1.000000
z233z122z1                    1.000000
z233z130z1                    1.000000
z233z164z2                    1.000000
z233z168z2                    1.000000
z233z177z2                    1.000000
z233z195z2                    1.000000
z233z196z2                    1.000000
z260z3z1                      1.000000
z260z9z1                      1.000000
z260z86z3                     1.000000
z260z178z3                    1.000000
z260z185z3                    1.000000
z9z15z1                       1.000000
z9z93z1                       1.000000
z12z3z1                       1.000000
z12z7z2                       1.000000
z20z3z1                       1.000000
z20z178z3                     1.000000
z20z185z3                     1.000000
z26z3z1                       1.000000
z26z185z3                     1.000000
z30z7z2                       1.000000
z30z25z2                      1.000000
z30z103z3                     1.000000
z30z178z3                     1.000000
z30z185z3                     1.000000
z37z3z1                       1.000000
z37z178z3                     1.000000
z37z185z3                     1.000000
z48z3z1                       1.000000
z48z178z3                     1.000000
z48z185z3                     1.000000
z59z7z2                       1.000000
z79z3z1                       1.000000
z82z22z3                      1.000000
z82z169z3                     1.000000
z82z178z3                     1.000000
z82z185z3                     1.000000
z86z163z3                     1.000000
z86z235z3                     1.000000
z87z7z2                       1.000000
z87z178z3                     1.000000
z87z185z3                     1.000000
z95z3z1                       1.000000
z99z3z1                       1.000000
z99z79z1                      1.000000
z99z90z1                      1.000000
z99z167z1                     1.000000
z99z191z1                     1.000000
z100z103z3                    1.000000
z100z178z3                    1.000000
z100z185z3                    1.000000
z100z241z3                    1.000000
z108z3z1                      1.000000
z108z25z3                     1.000000
z108z178z3                    1.000000
z108z185z3                    1.000000
z112z7z2                      1.000000
z112z178z3                    1.000000
z112z185z3                    1.000000
z118z3z1                      1.000000
z130z261z1                    1.000000
z146z3z1                      1.000000
z146z178z3                    1.000000
z146z185z3                    1.000000
z149z7z2                      1.000000
z158z7z2                      1.000000
z158z178z3                    1.000000
z158z185z3                    1.000000
z159z178z3                    1.000000
z159z185z3                    1.000000
z164z204z2                    1.000000
z164z261z2                    1.000000
z167z3z1                      1.000000
z168z15z2                     1.000000
z168z241z2                    1.000000
z173z40z3                     1.000000
z177z7z2                      1.000000
z177z93z2                     1.000000
z177z163z2                    1.000000
z184z178z3                    1.000000
z184z185z3                    1.000000
z190z7z2                      1.000000
z191z122z1                    1.000000
z193z3z1                      1.000000
z193z178z3                    1.000000
z193z185z3                    1.000000
z193z204z3                    1.000000
z193z235z1                    1.000000
z194z7z2                      1.000000
z194z90z2                     1.000000
z194z167z3                    1.000000
z210z178z3                    1.000000
z210z185z3                    1.000000
z224z3z1                      1.000000
z224z178z3                    1.000000
z224z185z3                    1.000000
z229z3z1                      1.000000
z229z178z3                    1.000000
z229z185z3                    1.000000
z234z7z2                      1.000000
z234z178z3                    1.000000
z234z185z3                    1.000000
All other variables in the range 1-5779 are 0.
